15	2	2
6209	6209	
108	403	443	
736	457	457	
368	391	417	
645	390	417	
994	910	932	
250	327	349	
297	681	714	
27	844	917	
214	432	451	
836	431	438	
274	571	617	
906	914	986	
421	227	242	
464	789	852	
480	512	528	
